2008425
1 12 10465
12 32 4813
32 56 1426
56 40 3489
40 5 3130
5 60 7978
60 29 6419
29 25 9940
25 30 1248
30 41 5056
41 6 10602
6 23 16175
23 49 4353
49 19 8894
19 54 26950
54 13 13535
13 47 9113
47 4 12781
4 20 4440
20 48 9225
48 2 7938
2 27 15574
27 17 1444
17 9 5356
9 58 1776
58 15 6903
15 8 6874
8 36 11459
36 59 8563
59 16 10879
16 63 14688
63 24 26977
24 61 5436
61 42 10110
42 3 13084
3 21 17216
21 38 42597
38 67 15199
67 64 14572
64 7 31077
7 34 42208
34 55 20834
55 46 30985
46 43 69393
43 11 99066
11 66 13370
66 26 57990
26 65 185977
65 45 16725
45 68 50027
68 35 19070
35 51 8926
51 39 11004
39 62 8740
62 37 30445
37 53 6554
53 50 48925
50 28 10810
28 31 65445
31 22 39447
22 52 46274
52 14 39276
14 57 44799
57 18 27906
18 10 28651
10 44 75759
44 33 185721
33 1 286344
